c
c Example Dimacs file
c
p cnf 6 24
1 -2 3 -4 5 0
-1 2 -3 4 5 -6 0
1 -2 4 6 0
2 -3 4 5 -6 0
-2 3 -4 -5 -6 0
1 -3 4 5 0
-1 -2 -3 -6 0
3 -4 -5 6 0
4 -5 -6 0
-2 -3 -4 -5 -6 0
-1 -3 -4 -5 -6 0
1 2 0
-1 -4 -5 0
-1 -4 -6 0
1 -2 5 0
-1 -2 3 0
2 3 4 0
1 -2 -3 0
-1 -2 0
-1 -5 0
-3 -4 0
-2 -4 0
2 3 0
-1 -3 0
